(set-logic UF)
(declare-sort Loc 0)
(declare-sort SetLoc 0)
(declare-sort FldBool 0)
(declare-sort FldLoc 0)
(declare-fun null$0 () Loc)
(declare-fun read$0 (FldLoc Loc) Loc)
(declare-fun ep$0 (FldLoc SetLoc Loc) Loc)
(declare-fun emptyset$0 () SetLoc)
(declare-fun setenum$0 (Loc) SetLoc)
(declare-fun union$0 (SetLoc SetLoc) SetLoc)
(declare-fun intersection$0 (SetLoc SetLoc) SetLoc)
(declare-fun setminus$0 (SetLoc SetLoc) SetLoc)
(declare-fun Btwn$0 (FldLoc Loc Loc Loc) Bool)
(declare-fun in$0 (Loc SetLoc) Bool)
(declare-fun Alloc$0 () SetLoc)
(declare-fun Axiom_6$0 () Bool)
(declare-fun Axiom_7$0 () Bool)
(declare-fun FP$0 () SetLoc)
(declare-fun FP_Caller$0 () SetLoc)
(declare-fun FP_Caller_1$0 () SetLoc)
(declare-fun dlseg_domain$0 (FldLoc FldLoc Loc Loc Loc Loc) SetLoc)
(declare-fun dlseg_struct$0 (SetLoc FldLoc FldLoc Loc Loc Loc Loc) Bool)
(declare-fun end1$0 () Loc)
(declare-fun end2$0 () Loc)
(declare-fun next$0 () FldLoc)
(declare-fun prev$0 () FldLoc)
(declare-fun sk_?X_8$0 () SetLoc)
(declare-fun sk_?X_9$0 () SetLoc)
(declare-fun sk_?X_10$0 () SetLoc)
(declare-fun start1$0 () Loc)
(declare-fun start2$0 () Loc)
(assert (not (= (= (read$0 next$0 end1$0) start1$0) (= start1$0 (read$0 next$0 end1$0)))))
(check-sat)
(exit)
